83
17
0 17 19 21 23 28 30 35 38 39 40 42 43 49 51 52 53 58 60 61 62 64 65 67 68 69 70 72 73 74 76 77 78 79
1 18 19 21 22 23 24 27 28 30 31 32 34 35 39 40 42 43 45 46 49 52 53 55 58 59 60 63 64 65 69 70 72 73 76 78 79 80 81 82
2 17 18 19 21 23 26 27 28 32 34 39 40 42 43 45 48 49 51 52 53 55 58 59 62 63 64 67 70 72 74 75 77 79 82
3 18 19 21 22 23 24 26 27 28 34 37 38 40 42 44 46 48 49 51 52 53 55 58 59 64 65 67 69 70 72 73 74 75 76 77 78 79 80 81
4 19 21 23 26 31 34 39 40 41 43 45 46 48 51 52 58 62 64 65 67 69 70 72 73 74 76 79 80 81 82
5 19 21 22 23 27 30 35 37 38 39 42 45 46 50 51 54 55 59 60 64 65 67 68 71 72 73 74 75 77 79 80 82
6 17 22 23 25 30 35 36 37 39 41 44 45 48 50 55 56 62 63 65 67 68 69 70 75 76 77 79 81
7 18 22 26 27 30 31 33 34 35 38 39 40 41 44 45 47 48 49 52 55 59 60 61 62 64 66 68 70 72 74 78 79 80 81 82
8 18 20 21 22 25 26 27 30 34 35 38 43 44 45 46 48 51 52 63 64 65 68 72 74 75 77 78 80 81
9 17 23 24 25 26 28 29 31 32 36 37 40 45 46 48 51 58 59 63 65 69 70 73 75 76 77 78 79 82
10 18 21 23 34 35 38 41 49 51 55 58 61 63 65 74 75 82
11 17 22 23 25 26 27 35 38 41 49 50 51 58 67 69 70 76 79
12 18 23 26 31 33 37 38 41 42 44 45 50 52 55 58 59 63 64 65 69 73 77 80 81 82
13 24 29 36 40 43 47 49 50 51 60 62 64 65 68 73
14 18 21 30 37 42 48 50 53 67 70 77
15 23 30 31 36 52 57 66 67 68
16 56
